p edge 41 259
e 1 3
e 1 5
e 1 6
e 1 11
e 1 17
e 1 18
e 1 19
e 1 20
e 1 22
e 1 23
e 1 25
e 1 27
e 1 28
e 1 30
e 1 31
e 1 40
e 1 41
e 2 3
e 2 4
e 2 6
e 2 8
e 2 9
e 2 11
e 2 12
e 2 13
e 2 15
e 2 17
e 2 20
e 2 21
e 2 22
e 2 23
e 2 25
e 2 32
e 2 35
e 2 36
e 2 38
e 3 4
e 3 7
e 3 9
e 3 13
e 3 15
e 3 16
e 3 18
e 3 20
e 3 23
e 3 24
e 3 25
e 3 28
e 3 32
e 3 33
e 3 38
e 4 8
e 4 10
e 4 20
e 4 24
e 4 25
e 4 27
e 4 29
e 4 32
e 4 34
e 4 39
e 5 6
e 5 11
e 5 12
e 5 18
e 5 22
e 5 23
e 5 36
e 5 39
e 5 40
e 6 8
e 6 18
e 6 21
e 6 23
e 6 25
e 6 26
e 6 39
e 6 40
e 7 12
e 7 16
e 7 19
e 7 21
e 7 24
e 7 29
e 7 31
e 7 34
e 7 38
e 8 10
e 8 11
e 8 13
e 8 16
e 8 17
e 8 23
e 8 24
e 8 28
e 8 30
e 8 35
e 8 39
e 9 11
e 9 14
e 9 20
e 9 21
e 9 22
e 9 25
e 9 28
e 9 32
e 9 34
e 10 15
e 10 17
e 10 22
e 10 25
e 10 28
e 10 30
e 10 31
e 10 34
e 10 36
e 10 38
e 11 12
e 11 15
e 11 16
e 11 22
e 11 24
e 11 32
e 11 36
e 11 39
e 11 41
e 12 18
e 12 20
e 12 25
e 12 28
e 12 34
e 13 16
e 13 18
e 13 19
e 13 21
e 13 24
e 13 25
e 13 28
e 13 31
e 13 32
e 13 38
e 13 39
e 13 41
e 14 16
e 14 17
e 14 23
e 14 31
e 14 32
e 15 16
e 15 20
e 15 21
e 15 22
e 15 27
e 15 38
e 15 40
e 16 17
e 16 21
e 16 25
e 16 27
e 16 28
e 16 30
e 16 34
e 16 35
e 16 36
e 16 38
e 17 19
e 17 20
e 17 22
e 17 24
e 17 27
e 17 28
e 17 29
e 18 19
e 18 24
e 18 25
e 18 28
e 18 34
e 18 36
e 18 37
e 19 20
e 19 21
e 19 29
e 19 32
e 19 36
e 20 27
e 20 29
e 20 33
e 20 36
e 20 37
e 21 31
e 21 34
e 22 23
e 22 29
e 22 30
e 22 35
e 22 36
e 23 31
e 23 34
e 23 37
e 23 38
e 23 39
e 23 41
e 24 27
e 24 28
e 24 29
e 24 30
e 24 32
e 24 33
e 24 35
e 24 37
e 24 39
e 24 40
e 25 30
e 25 31
e 25 32
e 25 38
e 25 39
e 26 27
e 26 31
e 26 32
e 26 33
e 26 36
e 26 40
e 26 41
e 27 28
e 27 31
e 27 32
e 27 33
e 27 35
e 27 36
e 27 38
e 27 41
e 28 34
e 28 35
e 28 38
e 28 40
e 29 31
e 29 32
e 29 38
e 30 33
e 30 37
e 30 39
e 31 32
e 31 39
e 31 40
e 31 41
e 32 36
e 33 38
e 34 39
e 34 41
e 35 36
e 35 39
e 35 41
e 36 38
e 36 40
e 36 41
e 37 41
e 38 40
e 39 41
